benchmarks_CP/INST_36x36/25/inst36x36_25_17.dzn
S=6;
start=[|
1,	20,	16,	24,	17,	-1,	-1,	-1,	-1,	31,	-1,	-1,	-1,	-1,	-1,	-1,	-1,	-1,	2,	-1,	5,	18,	-1,	-1,	-1,	7,	29,	-1,	22,	-1,	-1,	-1,	-1,	27,	13,	15|
-1,	31,	-1,	36,	-1,	5,	-1,	1,	-1,	-1,	2,	-1,	3,	-1,	12,	15,	-1,	-1,	-1,	-1,	-1,	30,	35,	-1,	-1,	-1,	-1,	-1,	-1,	32,	-1,	-1,	-1,	-1,	-1,	11|
-1,	32,	10,	7,	-1,	3,	-1,	-1,	-1,	-1,	-1,	-1,	11,	-1,	-1,	-1,	-1,	-1,	-1,	-1,	-1,	15,	-1,	-1,	-1,	-1,	23,	-1,	-1,	-1,	-1,	-1,	5,	-1,	33,	-1|
-1,	-1,	-1,	-1,	-1,	-1,	-1,	7,	-1,	-1,	-1,	-1,	-1,	14,	-1,	22,	-1,	-1,	-1,	-1,	-1,	-1,	33,	28,	35,	26,	-1,	-1,	-1,	-1,	-1,	-1,	-1,	12,	-1,	-1|
-1,	26,	-1,	-1,	-1,	-1,	5,	-1,	-1,	-1,	-1,	8,	-1,	16,	-1,	4,	-1,	-1,	-1,	11,	-1,	3,	7,	-1,	-1,	-1,	-1,	-1,	-1,	-1,	36,	21,	-1,	29,	-1,	-1|
-1,	-1,	21,	-1,	-1,	11,	26,	-1,	-1,	-1,	-1,	-1,	23,	-1,	-1,	28,	-1,	36,	-1,	-1,	-1,	10,	-1,	-1,	-1,	-1,	-1,	-1,	17,	-1,	-1,	7,	-1,	-1,	-1,	-1|
-1,	-1,	11,	-1,	-1,	-1,	-1,	-1,	7,	-1,	-1,	-1,	-1,	-1,	-1,	-1,	4,	-1,	-1,	-1,	9,	6,	-1,	-1,	10,	-1,	-1,	-1,	-1,	-1,	-1,	24,	-1,	23,	14,	-1|
-1,	-1,	-1,	3,	-1,	-1,	24,	2,	-1,	-1,	-1,	-1,	-1,	10,	-1,	-1,	-1,	-1,	-1,	17,	-1,	29,	-1,	-1,	-1,	-1,	-1,	-1,	-1,	-1,	6,	-1,	-1,	-1,	-1,	-1|
-1,	-1,	-1,	18,	6,	-1,	-1,	-1,	-1,	-1,	-1,	-1,	-1,	-1,	-1,	-1,	-1,	-1,	-1,	-1,	27,	-1,	-1,	-1,	19,	-1,	22,	-1,	-1,	-1,	-1,	-1,	-1,	-1,	-1,	13|
-1,	-1,	-1,	-1,	-1,	14,	-1,	-1,	-1,	-1,	-1,	-1,	13,	-1,	-1,	-1,	-1,	-1,	-1,	-1,	-1,	-1,	-1,	-1,	-1,	-1,	-1,	32,	-1,	-1,	29,	-1,	-1,	30,	-1,	-1|
-1,	-1,	-1,	-1,	-1,	-1,	-1,	20,	26,	-1,	15,	19,	2,	-1,	-1,	-1,	27,	-1,	-1,	-1,	-1,	-1,	32,	-1,	-1,	-1,	-1,	-1,	-1,	-1,	-1,	-1,	-1,	-1,	-1,	-1|
-1,	-1,	26,	-1,	-1,	-1,	-1,	-1,	-1,	14,	4,	-1,	-1,	3,	-1,	-1,	-1,	1,	-1,	19,	25,	-1,	-1,	23,	-1,	-1,	-1,	-1,	-1,	30,	-1,	-1,	-1,	21,	-1,	18|
-1,	17,	-1,	-1,	-1,	-1,	-1,	-1,	-1,	-1,	-1,	4,	-1,	-1,	-1,	1,	-1,	-1,	-1,	-1,	-1,	-1,	-1,	-1,	-1,	9,	-1,	-1,	-1,	-1,	-1,	34,	-1,	-1,	27,	-1|
22,	-1,	-1,	11,	-1,	-1,	-1,	-1,	-1,	-1,	-1,	-1,	-1,	36,	-1,	-1,	-1,	-1,	19,	-1,	-1,	-1,	-1,	-1,	15,	-1,	32,	-1,	30,	-1,	-1,	-1,	-1,	-1,	-1,	29|
-1,	1,	-1,	25,	-1,	-1,	35,	29,	-1,	-1,	-1,	-1,	-1,	-1,	-1,	-1,	-1,	-1,	-1,	-1,	-1,	-1,	30,	31,	-1,	18,	7,	6,	-1,	4,	-1,	16,	-1,	10,	-1,	20|
-1,	-1,	-1,	-1,	-1,	-1,	-1,	-1,	-1,	-1,	-1,	25,	-1,	-1,	-1,	-1,	32,	-1,	-1,	35,	-1,	-1,	14,	-1,	-1,	19,	-1,	-1,	28,	-1,	-1,	-1,	11,	-1,	-1,	-1|
-1,	-1,	28,	-1,	-1,	-1,	-1,	-1,	-1,	26,	16,	-1,	34,	2,	-1,	-1,	-1,	-1,	-1,	22,	-1,	7,	-1,	-1,	-1,	-1,	-1,	-1,	-1,	-1,	-1,	-1,	-1,	-1,	-1,	36|
-1,	-1,	29,	-1,	-1,	-1,	-1,	-1,	-1,	-1,	-1,	-1,	16,	-1,	-1,	9,	12,	-1,	-1,	-1,	6,	-1,	-1,	24,	-1,	-1,	-1,	-1,	26,	-1,	-1,	-1,	-1,	-1,	-1,	-1|
-1,	-1,	-1,	-1,	26,	-1,	-1,	31,	-1,	36,	33,	-1,	22,	-1,	6,	-1,	-1,	-1,	-1,	-1,	-1,	-1,	-1,	2,	32,	-1,	-1,	-1,	-1,	-1,	-1,	-1,	-1,	13,	8,	-1|
-1,	-1,	-1,	-1,	-1,	-1,	-1,	-1,	-1,	-1,	-1,	-1,	-1,	-1,	-1,	14,	28,	-1,	-1,	-1,	31,	22,	-1,	-1,	17,	-1,	19,	26,	16,	-1,	-1,	-1,	20,	-1,	-1,	-1|
-1,	-1,	31,	-1,	4,	-1,	-1,	-1,	-1,	12,	-1,	-1,	-1,	-1,	-1,	-1,	24,	-1,	-1,	7,	-1,	-1,	-1,	-1,	-1,	-1,	-1,	20,	25,	9,	-1,	-1,	-1,	-1,	-1,	-1|
-1,	-1,	1,	-1,	-1,	-1,	-1,	30,	-1,	-1,	-1,	-1,	-1,	-1,	-1,	2,	-1,	27,	-1,	-1,	-1,	-1,	36,	-1,	-1,	33,	-1,	-1,	13,	-1,	-1,	-1,	-1,	11,	7,	-1|
36,	-1,	-1,	-1,	10,	17,	-1,	-1,	-1,	3,	-1,	14,	-1,	-1,	-1,	-1,	-1,	34,	-1,	-1,	-1,	-1,	25,	-1,	22,	-1,	-1,	30,	-1,	-1,	-1,	-1,	31,	-1,	-1,	-1|
5,	-1,	-1,	-1,	20,	-1,	-1,	-1,	-1,	-1,	26,	-1,	-1,	-1,	-1,	-1,	-1,	13,	14,	30,	-1,	-1,	10,	-1,	27,	29,	36,	-1,	3,	-1,	-1,	-1,	-1,	-1,	-1,	34|
-1,	-1,	-1,	-1,	-1,	-1,	-1,	26,	-1,	-1,	-1,	24,	1,	-1,	-1,	-1,	-1,	16,	22,	12,	-1,	-1,	-1,	-1,	-1,	8,	-1,	-1,	23,	10,	-1,	-1,	-1,	33,	28,	-1|
10,	-1,	-1,	-1,	-1,	-1,	-1,	-1,	36,	-1,	-1,	16,	26,	-1,	32,	7,	6,	-1,	9,	-1,	-1,	27,	29,	-1,	-1,	-1,	-1,	-1,	-1,	-1,	-1,	-1,	-1,	-1,	-1,	-1|
-1,	-1,	-1,	-1,	-1,	-1,	-1,	-1,	12,	-1,	-1,	-1,	-1,	-1,	-1,	-1,	19,	9,	-1,	-1,	-1,	25,	-1,	-1,	-1,	-1,	-1,	36,	-1,	29,	26,	-1,	24,	-1,	-1,	-1|
-1,	-1,	5,	9,	22,	16,	31,	-1,	-1,	20,	32,	-1,	-1,	-1,	-1,	-1,	-1,	4,	-1,	-1,	26,	-1,	-1,	36,	-1,	-1,	-1,	-1,	-1,	-1,	-1,	-1,	1,	-1,	18,	-1|
-1,	-1,	23,	-1,	3,	35,	-1,	18,	-1,	-1,	17,	-1,	-1,	-1,	15,	-1,	-1,	2,	-1,	8,	-1,	-1,	-1,	1,	-1,	-1,	-1,	-1,	-1,	-1,	20,	-1,	-1,	9,	-1,	-1|
-1,	4,	-1,	-1,	-1,	36,	9,	-1,	-1,	10,	-1,	-1,	-1,	-1,	-1,	-1,	-1,	-1,	-1,	-1,	-1,	-1,	-1,	-1,	-1,	-1,	-1,	-1,	19,	-1,	-1,	-1,	-1,	-1,	5,	-1|
18,	-1,	-1,	-1,	-1,	9,	-1,	-1,	-1,	-1,	-1,	-1,	-1,	-1,	-1,	-1,	8,	-1,	-1,	32,	-1,	-1,	-1,	6,	-1,	-1,	-1,	-1,	-1,	-1,	-1,	-1,	-1,	20,	-1,	-1|
-1,	-1,	-1,	-1,	23,	26,	-1,	-1,	-1,	32,	-1,	-1,	-1,	9,	-1,	-1,	-1,	-1,	-1,	-1,	-1,	-1,	-1,	19,	-1,	-1,	8,	11,	4,	-1,	-1,	-1,	-1,	-1,	-1,	-1|
-1,	-1,	-1,	-1,	-1,	-1,	-1,	-1,	14,	8,	-1,	-1,	-1,	-1,	13,	19,	-1,	-1,	35,	-1,	-1,	-1,	-1,	-1,	-1,	-1,	-1,	27,	-1,	-1,	-1,	-1,	9,	-1,	-1,	-1|
-1,	-1,	-1,	-1,	-1,	4,	11,	12,	22,	-1,	18,	-1,	-1,	-1,	-1,	-1,	-1,	24,	17,	5,	-1,	8,	-1,	-1,	-1,	-1,	30,	-1,	-1,	-1,	-1,	-1,	-1,	-1,	-1,	-1|
-1,	30,	-1,	-1,	14,	15,	-1,	-1,	-1,	-1,	-1,	1,	-1,	-1,	26,	29,	23,	20,	-1,	24,	-1,	34,	9,	-1,	-1,	2,	17,	-1,	-1,	-1,	-1,	-1,	18,	-1,	-1,	-1|
-1,	-1,	-1,	-1,	-1,	-1,	-1,	-1,	-1,	-1,	-1,	36,	-1,	34,	-1,	-1,	-1,	-1,	-1,	-1,	14,	-1,	-1,	-1,	-1,	1,	-1,	23,	-1,	-1,	-1,	-1,	-1,	-1,	-1,	-1|];
